(declare-fun defined_input.resource () Bool)
(declare-fun defined_input.action () Bool)
(declare-fun defined_input.principal () Bool)
(declare-fun defined_input.context.oncall_session () Bool)
(declare-fun defined_input.context.has_incident_ticket () Bool)
(declare-fun input.resource () String)
(declare-fun input.action () String)
(declare-fun input.principal () String)
(declare-fun input.context.oncall_session () Bool)
(declare-fun input.context.has_incident_ticket () Bool)
(assert (and true
     defined_input.context.has_incident_ticket
     defined_input.context.oncall_session
     (and defined_input.principal defined_input.action defined_input.resource)
     (and defined_input.principal defined_input.action defined_input.resource)
     defined_input.context.has_incident_ticket
     defined_input.context.oncall_session
     (and defined_input.principal defined_input.action defined_input.resource)
     (and defined_input.principal defined_input.action defined_input.resource)))
(assert (let ((a!1 (or (and (or (= input.principal "Group::developers")
                        (= input.principal "Group::sre-oncall")
                        (= input.principal "User::alice")
                        (= input.principal "User::bob"))
                    (or (= input.action "Action::get")
                        (= input.action "Action::list"))
                    (= input.resource "Namespace::production")
                    true)
               (and (or (= input.principal "Group::sre-oncall")
                        (= input.principal "User::bob"))
                    (or (= input.action "Action::delete")
                        (= input.action "Action::get")
                        (= input.action "Action::list"))
                    (= input.resource "Namespace::production")
                    (= input.context.has_incident_ticket true)
                    (= input.context.oncall_session true))
               (and (or (= input.principal "Group::cluster-admins")
                        (= input.principal "User::root"))
                    (or (= input.action "Action::create")
                        (= input.action "Action::delete")
                        (= input.action "Action::get")
                        (= input.action "Action::list"))
                    (= input.resource "Namespace::production")
                    true)
               (and (or (= input.principal "Group::cluster-admins")
                        (= input.principal "User::root"))
                    (or (= input.action "Action::get")
                        (= input.action "Action::list"))
                    (= input.resource "Namespace::kube-system")
                    true))))
(let ((a!2 (and a!1
                (not (and defined_input.action
                          defined_input.resource
                          true
                          (= input.action "Action::delete")
                          (= input.resource "Namespace::kube-system")
                          true)))))
  (= (ite a!2 1 0) 1))))
